15
h2o cluster
O    -0.26092000    1.15914000    1.74674667
H    -0.74572000    0.30094000    1.57774667
H    -0.92332000    1.88514000    1.92874667
O    -1.27092000   -1.16366000   -1.72715333
H    -0.29282000   -1.02896000   -1.56855333
H    -1.65312000   -0.34936000   -2.16395333
O    -2.00462000   -1.15896000    0.95274667
H    -2.90212000   -0.79726000    1.20474667
H    -1.88092000   -1.08366000   -0.03715333
O     2.28508000    1.87514000    0.47924667
H     2.60008000    2.69414000    0.95874667
H     1.48108000    1.50414000    0.94474667
O     1.59008000   -1.35976000   -1.16585333
H     1.82908000   -0.44206000   -1.48325333
H     2.14908000   -2.03496000   -1.64755333