14
aniline, Angstrom
C -4.49408140 -0.51946290 -0.02202096
C -4.39545205  0.87042918 -0.05914542
C -3.12652264  1.48289978 -0.05590961
C -1.96726548  0.68270636 -0.02222277
C -2.08456282 -0.70574262  0.01461258
C -3.34378204 -1.31331924  0.01529886
H -3.42880881 -2.40722282  0.04495769
H -5.48574717 -0.99258830 -0.02198047
H -1.17783438 -1.32562943  0.04350596
H -0.97754706  1.15939577 -0.02141248
H -5.29973365  1.49354283 -0.08713571
N -3.01878348  2.86166859 -0.13123389
H -3.84835344  3.41497619  0.10170554
H -2.12148558  3.28148661  0.12800069
